
n_res = 8;
rcap = [22, 21, 21, 23, 800, 780, 736, 748];
rtype = [1, 1, 1, 1, 2, 2, 2, 2];
n_tasks = 50;
modes =  [{1, 2, 3, 4, 5, 6}, {7, 8, 9, 10, 11, 12}, {13, 14, 15, 16, 17, 18}, {19, 20, 21, 22, 23, 24}, {25, 26, 27, 28, 29, 30}, {31, 32, 33, 34, 35, 36}, {37, 38, 39, 40, 41, 42}, {43, 44, 45, 46, 47, 48}, {49, 50, 51, 52, 53, 54}, {55, 56, 57, 58, 59, 60}, {61, 62, 63, 64, 65, 66}, {67, 68, 69, 70, 71, 72}, {73, 74, 75, 76, 77, 78}, {79, 80, 81, 82, 83, 84}, {85, 86, 87, 88, 89, 90}, {91, 92, 93, 94, 95, 96}, {97, 98, 99, 100, 101, 102}, {103, 104, 105, 106, 107, 108}, {109, 110, 111, 112, 113, 114}, {115, 116, 117, 118, 119, 120}, {121, 122, 123, 124, 125, 126}, {127, 128, 129, 130, 131, 132}, {133, 134, 135, 136, 137, 138}, {139, 140, 141, 142, 143, 144}, {145, 146, 147, 148, 149, 150}, {151, 152, 153, 154, 155, 156}, {157, 158, 159, 160, 161, 162}, {163, 164, 165, 166, 167, 168}, {169, 170, 171, 172, 173, 174}, {175, 176, 177, 178, 179, 180}, {181, 182, 183, 184, 185, 186}, {187, 188, 189, 190, 191, 192}, {193, 194, 195, 196, 197, 198}, {199, 200, 201, 202, 203, 204}, {205, 206, 207, 208, 209, 210}, {211, 212, 213, 214, 215, 216}, {217, 218, 219, 220, 221, 222}, {223, 224, 225, 226, 227, 228}, {229, 230, 231, 232, 233, 234}, {235, 236, 237, 238, 239, 240}, {241, 242, 243, 244, 245, 246}, {247, 248, 249, 250, 251, 252}, {253, 254, 255, 256, 257, 258}, {259, 260, 261, 262, 263, 264}, {265, 266, 267, 268, 269, 270}, {271, 272, 273, 274, 275, 276}, {277, 278, 279, 280, 281, 282}, {283, 284, 285, 286, 287, 288}, {289, 290, 291, 292, 293, 294}, {295, 296, 297, 298, 299, 300}];
succ =  [{20, 17, 16, 11, 8, 7}, {27, 15, 11, 8}, {28, 26, 21, 15, 12}, {26, 17, 15, 12}, {35, 30, 27, 25, 23, 17, 14}, {36, 28, 27, 24, 21, 20, 18}, {43, 36, 30, 28, 27, 26, 25, 23, 21}, {36, 35, 28, 24, 21, 18}, {33, 26, 20, 17}, {36, 33, 30, 28, 24, 18}, {43, 38, 36, 34, 31, 26, 23, 21}, {42, 41, 36, 33, 30, 29, 24, 20}, {43, 42, 41, 38, 36, 35, 33, 30, 29, 24}, {41, 40, 36, 18}, {41, 33, 31, 30, 25, 23}, {42, 41, 40, 38, 36, 26, 24}, {42, 40, 36, 31, 28, 24}, {50, 43, 42, 38, 34, 32, 31, 26}, {41, 38, 35, 31, 29, 23}, {50, 49, 48, 43, 40, 39, 38, 35, 32}, {49, 48, 47, 42, 41, 33, 32}, {50, 48, 40, 39, 28}, {50, 49, 48, 47, 40, 39, 32}, {50, 49, 47, 39, 34, 32}, {42, 39, 38, 34, 32}, {39, 37, 29}, {48, 41, 38, 37}, {49, 45, 41, 38}, {49, 48, 47, 46, 45, 44}, {49, 48, 44, 37}, {39, 37}, {44, 37}, {40, 39}, {48, 46, 44}, {47, 46, 45}, {45, 39}, {46, 45}, {47, 46}, {44}, {45}, {44}, {45}, {44}, {}, {}, {}, {}, {}, {}, {}];
n_opt = 300;
dur = [4, 14, 22, 23, 24, 29, 5, 6, 7, 8, 21, 22, 1, 11, 16, 21, 22, 29, 2, 4, 5, 12, 19, 26, 4, 11, 17, 20, 21, 29, 2, 12, 13, 14, 18, 26, 2, 3, 4, 21, 23, 28, 5, 14, 19, 26, 28, 29, 8, 15, 18, 19, 20, 30, 5, 7, 15, 23, 26, 27, 14, 15, 16, 17, 18, 28, 5, 7, 8, 9, 11, 27, 19, 23, 24, 26, 28, 30, 7, 11, 13, 18, 23, 27, 10, 18, 22, 23, 29, 30, 3, 9, 10, 18, 21, 30, 5, 11, 15, 16, 21, 24, 4, 13, 20, 26, 28, 29, 2, 12, 13, 16, 24, 27, 11, 12, 13, 15, 16, 17, 7, 15, 21, 23, 27, 30, 3, 4, 7, 13, 14, 15, 2, 3, 5, 6, 13, 22, 1, 10, 12, 15, 18, 29, 9, 10, 13, 20, 28, 29, 7, 19, 20, 21, 29, 30, 12, 17, 21, 24, 25, 30, 10, 11, 12, 14, 21, 26, 8, 14, 21, 22, 25, 29, 8, 11, 12, 13, 14, 28, 8, 10, 18, 20, 21, 28, 7, 11, 12, 18, 19, 22, 5, 6, 20, 21, 23, 24, 4, 11, 17, 20, 27, 28, 7, 10, 13, 15, 16, 20, 3, 8, 12, 13, 14, 28, 8, 10, 14, 15, 21, 26, 2, 7, 15, 20, 21, 24, 3, 8, 13, 17, 22, 28, 4, 5, 6, 8, 17, 21, 9, 14, 17, 18, 19, 20, 1, 2, 21, 23, 28, 29, 4, 12, 13, 14, 15, 16, 2, 9, 13, 14, 17, 27, 3, 17, 20, 22, 23, 24, 2, 3, 10, 15, 19, 26, 2, 3, 17, 19, 20, 21, 5, 6, 12, 13, 14, 24, 2, 3, 4, 8, 14, 29, 4, 11, 15, 18, 23, 28];
rreq = [|4, 3, 3, 3, 3, 3, 4, 3, 3, 2, 1, 1, 3, 3, 3, 2, 1, 1, 5, 4, 4, 3, 3, 2, 5, 5, 5, 5, 5, 5, 2, 1, 1, 1, 1, 1, 2, 2, 2, 2, 2, 2, 5, 5, 5, 5, 5, 5, 1, 1, 1, 1, 1, 1, 4, 3, 3, 3, 1, 1, 3, 2, 2, 1, 1, 1, 1, 1, 1, 1, 1, 1, 5, 4, 3, 2, 2, 1, 3, 3, 3, 3, 3, 3, 4, 4, 4, 3, 3, 3, 5, 4, 3, 2, 2, 1, 3, 3, 3, 2, 2, 2, 2, 2, 2, 2, 1, 1, 4, 3, 3, 2, 2, 1, 2, 2, 2, 2, 2, 2, 4, 4, 4, 4, 4, 4, 3, 2, 2, 1, 1, 1, 5, 5, 5, 5, 5, 5, 3, 3, 3, 3, 3, 3, 2, 2, 2, 2, 2, 2, 4, 4, 3, 3, 1, 1, 2, 1, 1, 1, 1, 1, 3, 2, 2, 2, 1, 1, 4, 3, 3, 3, 3, 3, 3, 2, 2, 1, 1, 1, 4, 3, 3, 3, 3, 3, 5, 4, 3, 2, 2, 1, 3, 3, 3, 3, 2, 2, 2, 1, 1, 1, 1, 1, 3, 2, 2, 1, 1, 1, 5, 4, 3, 3, 2, 2, 5, 4, 4, 4, 4, 4, 4, 4, 4, 3, 2, 2, 5, 3, 3, 2, 2, 1, 1, 1, 1, 1, 1, 1, 3, 2, 2, 1, 1, 1, 2, 1, 1, 1, 1, 1, 2, 1, 1, 1, 1, 1, 4, 4, 4, 4, 3, 3, 3, 3, 3, 2, 2, 2, 3, 3, 3, 3, 3, 3, 4, 3, 3, 3, 3, 3, 5, 3, 3, 3, 1, 1, 1, 1, 1, 1, 1, 1, 2, 2, 2, 2, 2, 2
 |4, 3, 2, 2, 1, 1, 1, 1, 1, 1, 1, 1, 3, 3, 3, 3, 3, 3, 1, 1, 1, 1, 1, 1, 4, 4, 3, 3, 3, 2, 3, 2, 2, 2, 1, 1, 4, 4, 4, 4, 4, 4, 2, 1, 1, 1, 1, 1, 1, 1, 1, 1, 1, 1, 4, 3, 3, 3, 2, 2, 4, 4, 4, 4, 4, 4, 1, 1, 1, 1, 1, 1, 3, 3, 3, 3, 3, 3, 3, 2, 2, 2, 2, 2, 5, 5, 5, 5, 5, 5, 4, 3, 2, 2, 1, 1, 4, 3, 3, 3, 3, 3, 3, 3, 3, 2, 1, 1, 3, 3, 3, 3, 3, 3, 5, 3, 3, 2, 1, 1, 5, 4, 4, 4, 3, 3, 4, 4, 4, 4, 4, 4, 4, 3, 3, 2, 1, 1, 5, 4, 3, 2, 1, 1, 4, 3, 3, 3, 2, 1, 5, 4, 4, 4, 4, 4, 1, 1, 1, 1, 1, 1, 2, 2, 2, 2, 2, 2, 3, 2, 2, 1, 1, 1, 5, 4, 4, 3, 2, 2, 4, 4, 4, 3, 2, 2, 5, 3, 3, 3, 2, 1, 5, 3, 3, 3, 1, 1, 5, 4, 3, 2, 2, 1, 1, 1, 1, 1, 1, 1, 4, 3, 2, 2, 2, 1, 2, 2, 2, 2, 2, 2, 4, 4, 4, 4, 4, 4, 3, 3, 3, 2, 2, 1, 5, 3, 3, 2, 2, 1, 2, 2, 2, 2, 2, 2, 3, 2, 2, 2, 1, 1, 3, 2, 2, 2, 2, 2, 3, 3, 3, 3, 3, 3, 1, 1, 1, 1, 1, 1, 3, 2, 2, 2, 2, 2, 1, 1, 1, 1, 1, 1, 4, 3, 3, 3, 2, 2, 4, 4, 4, 3, 3, 2, 2, 2, 2, 2, 2, 2
 |4, 4, 4, 4, 4, 4, 4, 4, 4, 3, 2, 2, 4, 3, 3, 3, 3, 3, 2, 2, 2, 2, 2, 2, 1, 1, 1, 1, 1, 1, 3, 3, 3, 3, 3, 3, 4, 4, 4, 4, 3, 3, 3, 3, 3, 3, 3, 3, 1, 1, 1, 1, 1, 1, 4, 4, 4, 4, 4, 4, 1, 1, 1, 1, 1, 1, 4, 3, 3, 2, 2, 1, 4, 4, 4, 4, 3, 3, 5, 4, 3, 3, 2, 2, 1, 1, 1, 1, 1, 1, 3, 2, 2, 2, 1, 1, 3, 3, 3, 3, 3, 3, 4, 4, 4, 3, 2, 2, 3, 3, 3, 2, 2, 2, 5, 4, 4, 3, 2, 2, 4, 3, 2, 2, 1, 1, 4, 4, 4, 4, 4, 4, 4, 3, 3, 2, 2, 1, 1, 1, 1, 1, 1, 1, 5, 4, 4, 4, 4, 4, 3, 3, 3, 3, 3, 3, 4, 4, 4, 4, 4, 4, 4, 3, 3, 3, 3, 3, 4, 4, 4, 3, 3, 3, 4, 4, 4, 3, 3, 2, 4, 3, 3, 2, 1, 1, 2, 2, 2, 2, 2, 2, 3, 3, 3, 3, 3, 3, 5, 3, 3, 2, 1, 1, 2, 2, 2, 2, 2, 2, 2, 1, 1, 1, 1, 1, 5, 4, 4, 4, 4, 4, 3, 3, 3, 3, 3, 3, 4, 3, 3, 2, 2, 2, 2, 2, 2, 2, 1, 1, 1, 1, 1, 1, 1, 1, 5, 4, 3, 3, 3, 2, 5, 3, 3, 2, 1, 1, 4, 3, 3, 3, 3, 3, 3, 2, 2, 2, 2, 2, 5, 4, 4, 4, 4, 4, 4, 4, 3, 3, 2, 2, 2, 2, 2, 1, 1, 1, 5, 4, 3, 3, 2, 2, 2, 1, 1, 1, 1, 1
 |3, 3, 3, 3, 2, 2, 3, 3, 3, 2, 2, 2, 5, 4, 4, 4, 4, 4, 5, 4, 4, 3, 3, 3, 5, 3, 3, 2, 2, 1, 4, 4, 4, 3, 3, 3, 3, 3, 3, 2, 2, 2, 3, 3, 3, 3, 2, 2, 4, 4, 4, 4, 3, 3, 4, 3, 3, 3, 3, 3, 5, 3, 3, 2, 1, 1, 4, 4, 3, 3, 2, 1, 2, 2, 2, 2, 2, 2, 4, 4, 4, 3, 3, 2, 5, 4, 3, 3, 1, 1, 3, 3, 3, 3, 3, 3, 3, 2, 2, 1, 1, 1, 3, 3, 3, 2, 2, 2, 4, 3, 3, 3, 3, 3, 5, 4, 3, 3, 2, 2, 4, 3, 3, 2, 2, 2, 3, 3, 3, 3, 3, 3, 5, 4, 4, 4, 3, 3, 5, 4, 3, 2, 1, 1, 2, 2, 2, 2, 2, 2, 5, 4, 4, 3, 3, 2, 1, 1, 1, 1, 1, 1, 3, 3, 3, 3, 3, 3, 1, 1, 1, 1, 1, 1, 2, 2, 2, 2, 1, 1, 5, 4, 3, 2, 1, 1, 2, 1, 1, 1, 1, 1, 1, 1, 1, 1, 1, 1, 5, 5, 5, 5, 5, 5, 5, 4, 4, 3, 3, 3, 5, 4, 3, 3, 2, 2, 4, 4, 4, 4, 3, 3, 4, 3, 3, 3, 3, 3, 5, 3, 3, 3, 2, 1, 4, 4, 4, 4, 3, 3, 4, 3, 3, 3, 2, 2, 5, 4, 4, 4, 3, 3, 3, 3, 3, 2, 1, 1, 4, 4, 4, 3, 2, 2, 3, 3, 3, 2, 2, 1, 1, 1, 1, 1, 1, 1, 4, 3, 3, 3, 2, 2, 4, 4, 4, 4, 3, 3, 4, 4, 4, 4, 4, 4, 5, 4, 4, 4, 4, 4
 |29, 26, 23, 20, 17, 14, 26, 22, 21, 19, 13, 11, 5, 5, 5, 5, 5, 5, 18, 17, 15, 13, 10, 9, 28, 28, 28, 28, 28, 28, 26, 24, 21, 19, 18, 16, 16, 12, 12, 9, 6, 5, 29, 26, 23, 20, 18, 16, 27, 22, 17, 15, 11, 6, 20, 18, 15, 13, 11, 11, 27, 24, 23, 23, 21, 19, 8, 6, 6, 5, 4, 3, 24, 23, 21, 20, 20, 19, 19, 17, 12, 10, 8, 2, 25, 25, 25, 25, 24, 24, 21, 21, 15, 14, 12, 7, 15, 13, 12, 12, 10, 9, 13, 10, 7, 7, 4, 2, 22, 20, 19, 15, 13, 9, 22, 20, 16, 9, 9, 4, 24, 22, 18, 17, 11, 9, 30, 27, 21, 21, 17, 14, 17, 17, 11, 11, 5, 5, 23, 22, 21, 19, 18, 18, 11, 10, 9, 8, 7, 7, 22, 19, 17, 15, 11, 10, 9, 9, 7, 6, 5, 4, 26, 26, 26, 26, 26, 26, 18, 17, 17, 16, 15, 15, 27, 27, 25, 24, 24, 23, 6, 6, 5, 5, 3, 3, 11, 11, 11, 11, 11, 11, 17, 16, 16, 16, 15, 15, 23, 22, 21, 18, 16, 13, 30, 23, 21, 20, 14, 13, 21, 17, 14, 14, 10, 8, 27, 26, 25, 25, 23, 23, 26, 26, 21, 19, 19, 15, 25, 24, 23, 23, 22, 22, 27, 27, 26, 24, 24, 22, 27, 24, 21, 16, 12, 9, 24, 21, 18, 17, 13, 11, 8, 8, 7, 7, 7, 6, 3, 3, 2, 2, 1, 1, 22, 21, 19, 15, 13, 13, 14, 12, 11, 10, 7, 7, 21, 18, 15, 13, 8, 4, 21, 18, 16, 14, 12, 10, 27, 23, 23, 20, 19, 16, 19, 13, 13, 8, 4, 2
 |24, 21, 18, 16, 13, 11, 22, 22, 21, 21, 20, 20, 15, 15, 11, 7, 4, 2, 19, 18, 16, 16, 14, 11, 14, 13, 13, 12, 12, 12, 28, 26, 26, 26, 24, 24, 23, 22, 22, 21, 20, 20, 27, 21, 16, 13, 7, 7, 21, 20, 15, 14, 13, 9, 22, 21, 15, 13, 8, 5, 17, 14, 10, 10, 6, 4, 22, 21, 20, 19, 19, 18, 23, 18, 14, 13, 9, 5, 26, 24, 21, 18, 16, 12, 9, 8, 8, 8, 7, 7, 24, 22, 22, 21, 19, 19, 21, 20, 15, 14, 13, 8, 19, 17, 11, 11, 8, 3, 8, 7, 6, 5, 4, 3, 30, 27, 24, 23, 20, 17, 25, 19, 16, 12, 10, 6, 13, 11, 9, 6, 3, 2, 29, 20, 17, 16, 6, 2, 21, 16, 15, 13, 11, 7, 27, 25, 21, 16, 15, 11, 18, 17, 16, 16, 14, 14, 12, 12, 12, 12, 12, 12, 29, 27, 26, 24, 22, 22, 10, 8, 8, 6, 4, 3, 23, 23, 23, 23, 23, 23, 15, 15, 11, 10, 8, 6, 7, 5, 5, 5, 3, 3, 23, 22, 20, 20, 18, 18, 25, 19, 15, 12, 12, 8, 15, 13, 13, 12, 10, 10, 20, 19, 17, 17, 15, 15, 23, 20, 16, 16, 11, 11, 23, 21, 21, 19, 19, 17, 17, 17, 17, 17, 17, 17, 9, 8, 8, 7, 7, 7, 26, 25, 22, 22, 20, 17, 26, 26, 23, 21, 20, 18, 13, 11, 11, 10, 8, 8, 6, 6, 5, 5, 5, 4, 23, 19, 19, 16, 15, 14, 24, 23, 22, 22, 21, 20, 23, 23, 23, 23, 23, 23, 21, 20, 20, 20, 20, 20, 18, 17, 17, 16, 16, 15, 11, 7, 6, 5, 2, 2
 |18, 14, 13, 10, 8, 6, 20, 19, 12, 11, 8, 3, 25, 22, 21, 17, 15, 12, 20, 20, 20, 20, 20, 20, 25, 22, 17, 10, 5, 1, 23, 20, 17, 16, 12, 10, 16, 15, 13, 12, 11, 11, 11, 10, 9, 7, 6, 6, 23, 22, 21, 21, 20, 19, 29, 24, 21, 17, 15, 13, 14, 14, 13, 12, 12, 11, 28, 24, 23, 21, 19, 19, 26, 24, 23, 20, 19, 16, 17, 17, 17, 16, 16, 16, 15, 12, 10, 10, 6, 6, 12, 11, 9, 8, 6, 3, 11, 10, 10, 9, 8, 8, 12, 11, 10, 10, 10, 9, 11, 10, 7, 7, 3, 3, 27, 23, 22, 20, 18, 16, 28, 26, 24, 24, 20, 19, 21, 18, 17, 16, 14, 12, 9, 9, 8, 7, 5, 4, 10, 7, 7, 5, 5, 3, 23, 21, 20, 20, 18, 18, 25, 21, 20, 17, 14, 11, 27, 23, 16, 13, 9, 4, 26, 20, 16, 13, 13, 9, 25, 22, 18, 14, 11, 11, 26, 24, 18, 15, 12, 9, 28, 28, 27, 27, 25, 25, 19, 13, 12, 11, 6, 4, 26, 25, 24, 24, 23, 22, 9, 6, 5, 5, 2, 2, 22, 22, 22, 22, 21, 21, 22, 18, 16, 14, 11, 9, 14, 12, 12, 12, 10, 10, 9, 9, 9, 9, 9, 9, 25, 24, 23, 23, 23, 22, 19, 19, 17, 17, 16, 15, 3, 3, 3, 3, 3, 3, 4, 4, 4, 4, 4, 4, 3, 3, 3, 3, 3, 3, 18, 17, 17, 16, 16, 15, 18, 18, 18, 18, 18, 18, 27, 20, 18, 15, 9, 3, 23, 21, 18, 14, 12, 8, 27, 26, 26, 26, 25, 25, 15, 13, 11, 9, 8, 7, 4, 4, 3, 2, 1, 1
 |4, 4, 3, 3, 2, 2, 13, 10, 9, 8, 7, 5, 12, 11, 8, 7, 4, 2, 17, 16, 16, 15, 15, 14, 28, 21, 19, 12, 8, 7, 15, 15, 12, 12, 11, 8, 23, 22, 21, 19, 19, 18, 27, 26, 24, 21, 20, 15, 21, 21, 21, 21, 20, 20, 6, 6, 6, 5, 5, 4, 25, 24, 21, 19, 18, 15, 28, 24, 21, 19, 16, 15, 20, 19, 19, 19, 19, 19, 12, 12, 8, 6, 4, 3, 25, 25, 22, 16, 13, 9, 6, 6, 6, 6, 6, 6, 28, 25, 22, 19, 17, 15, 24, 21, 20, 16, 13, 12, 21, 21, 19, 17, 17, 16, 22, 21, 19, 19, 17, 15, 20, 18, 17, 16, 13, 11, 22, 18, 13, 11, 7, 4, 13, 11, 9, 7, 7, 5, 17, 17, 16, 15, 13, 13, 9, 8, 8, 7, 7, 6, 11, 10, 8, 8, 6, 3, 21, 21, 18, 17, 15, 15, 29, 28, 28, 27, 27, 26, 25, 23, 15, 12, 8, 7, 19, 13, 12, 10, 5, 3, 28, 23, 23, 19, 17, 16, 13, 13, 12, 12, 11, 10, 11, 9, 9, 8, 7, 7, 4, 3, 2, 2, 1, 1, 30, 23, 16, 11, 9, 4, 23, 23, 22, 22, 20, 20, 14, 12, 12, 10, 10, 9, 24, 23, 23, 22, 22, 22, 22, 20, 14, 10, 9, 3, 6, 6, 6, 6, 6, 6, 28, 23, 22, 18, 14, 9, 6, 4, 4, 3, 3, 2, 25, 25, 23, 18, 18, 14, 6, 5, 5, 5, 5, 5, 28, 25, 21, 15, 13, 8, 29, 21, 18, 17, 10, 6, 27, 26, 26, 26, 25, 25, 16, 15, 15, 15, 15, 15, 29, 29, 29, 28, 27, 27, 28, 25, 23, 21, 16, 15|];